(set-info :smt-lib-version 2.6)
(set-logic QF_UFLRA)
(set-info :source |
MathSat group

|)
(set-info :category "random")
(set-info :status sat)
(declare-fun x0 () Real)
(declare-fun x1 () Real)
(declare-fun x2 () Real)
(declare-fun x3 () Real)
(declare-fun x4 () Real)
(declare-fun x5 () Real)
(declare-fun x6 () Real)
(declare-fun x7 () Real)
(declare-fun x8 () Real)
(declare-fun x9 () Real)
(declare-fun x10 () Real)
(declare-fun x11 () Real)
(declare-fun x12 () Real)
(declare-fun x13 () Real)
(declare-fun x14 () Real)
(declare-fun x15 () Real)
(declare-fun x16 () Real)
(declare-fun x17 () Real)
(declare-fun x18 () Real)
(declare-fun x19 () Real)
(declare-fun x20 () Real)
(declare-fun x21 () Real)
(declare-fun x22 () Real)
(declare-fun x23 () Real)
(declare-fun x24 () Real)
(declare-fun x25 () Real)
(declare-fun x26 () Real)
(declare-fun x27 () Real)
(declare-fun x28 () Real)
(declare-fun x29 () Real)
(declare-fun x30 () Real)
(declare-fun x31 () Real)
(declare-fun x32 () Real)
(declare-fun x33 () Real)
(declare-fun x34 () Real)
(declare-fun x35 () Real)
(declare-fun x36 () Real)
(declare-fun x37 () Real)
(declare-fun x38 () Real)
(declare-fun x39 () Real)
(declare-fun f0_1 (Real) Real)
(declare-fun f0_2 (Real Real) Real)
(declare-fun f0_3 (Real Real Real) Real)
(declare-fun f0_4 (Real Real Real Real) Real)
(declare-fun P0 () Bool)
(declare-fun P1 () Bool)
(declare-fun P2 () Bool)
(declare-fun P3 () Bool)
(declare-fun P4 () Bool)
(declare-fun P5 () Bool)
(declare-fun P6 () Bool)
(declare-fun P7 () Bool)
(declare-fun P8 () Bool)
(declare-fun P9 () Bool)
(declare-fun P10 () Bool)
(declare-fun P11 () Bool)
(declare-fun P12 () Bool)
(declare-fun P13 () Bool)
(declare-fun P14 () Bool)
(declare-fun P15 () Bool)
(declare-fun P16 () Bool)
(declare-fun P17 () Bool)
(declare-fun P18 () Bool)
(declare-fun P19 () Bool)
(declare-fun P20 () Bool)
(declare-fun P21 () Bool)
(declare-fun P22 () Bool)
(declare-fun P23 () Bool)
(declare-fun P24 () Bool)
(declare-fun P25 () Bool)
(declare-fun P26 () Bool)
(declare-fun P27 () Bool)
(declare-fun P28 () Bool)
(declare-fun P29 () Bool)
(declare-fun P30 () Bool)
(declare-fun P31 () Bool)
(declare-fun P32 () Bool)
(declare-fun P33 () Bool)
(declare-fun P34 () Bool)
(declare-fun P35 () Bool)
(declare-fun P36 () Bool)
(declare-fun P37 () Bool)
(declare-fun P38 () Bool)
(declare-fun P39 () Bool)
(assert (let ((?v_124 (distinct (+ (- (* 14 x38) (* 18 x14)) (* 4 x25)) 18)) (?v_9 (* 8 x15)) (?v_115 (= (- (+ (* 6 x7) (* 16 x35)) (* 38 x12)) 46)) (?v_51 (<= (- (- (* 45 x33) (* 7 x15)) (* 34 x6)) 13)) (?v_141 (< (- (- (* 19 x0) (* 21 x27)) (* 15 x1)) 53)) (?v_0 (f0_1 x25))) (let ((?v_118 (= ?v_0 x12)) (?v_130 (distinct x36 (f0_2 x13 x6))) (?v_85 (f0_1 x3))) (let ((?v_96 (distinct (f0_1 x8) ?v_85)) (?v_104 (distinct (f0_1 x23) (f0_1 x1))) (?v_25 (= x4 x7)) (?v_166 (distinct x25 x31)) (?v_111 (f0_1 x5))) (let ((?v_41 (= x37 ?v_111)) (?v_5 (= ?v_85 x34)) (?v_75 (f0_1 x19))) (let ((?v_77 (= (f0_2 x35 x18) ?v_75)) (?v_62 (distinct (f0_2 x10 x34) (f0_2 x2 x0))) (?v_3 (distinct (f0_2 x22 x2) (f0_1 x26))) (?v_88 (f0_2 x36 x26)) (?v_14 (f0_1 x35))) (let ((?v_137 (distinct ?v_88 ?v_14)) (?v_10 (distinct (f0_2 x26 x10) x13)) (?v_24 (distinct (f0_1 x17) ?v_14)) (?v_15 (f0_1 x27)) (?v_46 (f0_1 x12))) (let ((?v_35 (= ?v_15 ?v_46)) (?v_84 (= x36 (f0_1 x4))) (?v_45 (= x17 (f0_1 x29))) (?v_145 (f0_1 x2))) (let ((?v_153 (distinct (f0_2 x24 x38) ?v_145)) (?v_2 (f0_1 x37))) (let ((?v_22 (= (f0_2 x9 x6) ?v_2)) (?v_109 (= (f0_1 x16) (f0_2 x22 x24))) (?v_43 (distinct ?v_14 ?v_15)) (?v_54 (distinct (f0_2 x29 x3) (f0_2 x29 x36))) (?v_64 (distinct x28 (f0_2 x2 x39))) (?v_19 (f0_1 x18))) (let ((?v_170 (distinct ?v_19 x12)) (?v_175 (distinct ?v_46 (f0_2 x36 x37))) (?v_163 (distinct (f0_2 x20 x30) (f0_1 x30))) (?v_59 (distinct ?v_88 ?v_2)) (?v_116 (distinct (f0_2 x26 x35) (f0_2 x33 x13))) (?v_165 (distinct x15 x28)) (?v_87 (= (f0_2 x6 x25) (f0_2 x28 x15))) (?v_90 (distinct (f0_1 x38) x30)) (?v_181 (distinct ?v_145 (f0_2 x33 x10))) (?v_82 (= ?v_19 (f0_2 x26 x34))) (?v_139 (distinct (f0_2 x39 x30) x9)) (?v_83 (distinct x16 ?v_75)) (?v_199 (= ?v_0 (f0_1 x31))) (?v_152 (= x30 ?v_111)) (?v_129 (distinct (f0_1 x11) (f0_2 x28 x1))) (?v_20 (distinct x2 (f0_1 x32))) (?v_27 (= ?v_2 (f0_2 x17 x28))) (?v_11 (not ?v_118)) (?v_179 (not ?v_54)) (?v_86 (not P8)) (?v_135 (not ?v_64)) (?v_168 (not P23)) (?v_66 (not ?v_124)) (?v_99 (not P22))) (let ((?v_1 (not ?v_199)) (?v_32 (not ?v_51)) (?v_55 (not ?v_3))) (let ((?v_210 (or ?v_1 ?v_22)) (?v_31 (not P5)) (?v_67 (not P30)) (?v_53 (not ?v_90)) (?v_26 (not ?v_20)) (?v_167 (not ?v_170)) (?v_123 (not ?v_130)) (?v_28 (not ?v_153)) (?v_198 (not P10)) (?v_42 (not P0)) (?v_81 (not ?v_87)) (?v_38 (not ?v_10)) (?v_113 (not P11)) (?v_39 (not ?v_27)) (?v_23 (not P27)) (?v_103 (not ?v_62)) (?v_33 (not ?v_43)) (?v_71 (not P34)) (?v_148 (not ?v_77)) (?v_125 (not P39)) (?v_151 (not ?v_5)) (?v_34 (not P19)) (?v_74 (not ?v_22)) (?v_52 (not P20)) (?v_177 (not ?v_129)) (?v_49 (not P9)) (?v_110 (not P33)) (?v_201 (not P6)) (?v_65 (not P29))) (let ((?v_154 (or ?v_201 ?v_65)) (?v_147 (not ?v_109)) (?v_47 (not P3)) (?v_106 (not P25)) (?v_69 (not P2)) (?v_61 (not ?v_45)) (?v_89 (not ?v_175)) (?v_162 (not ?v_41)) (?v_186 (not P4)) (?v_68 (not P36)) (?v_132 (not P37)) (?v_182 (not ?v_166)) (?v_72 (not ?v_163)) (?v_136 (not ?v_104)) (?v_98 (not P35)) (?v_100 (not P31)) (?v_161 (not ?v_139)) (?v_119 (not P1)) (?v_160 (not ?v_165)) (?v_112 (not P24)) (?v_169 (not P13)) (?v_164 (not ?v_82)) (?v_92 (not ?v_59)) (?v_180 (not ?v_84)) (?v_127 (not ?v_35)) (?v_120 (not P14)) (?v_126 (not ?v_116)) (?v_187 (not P12)) (?v_184 (not P17)) (?v_134 (not ?v_24)) (?v_172 (not ?v_25)) (?v_146 (not ?v_115)) (?v_190 (not P21)) (?v_150 (not P28)) (?v_156 (not P7)) (?v_192 (not ?v_137)) (?v_159 (not ?v_181)) (?v_185 (not ?v_83)) (?v_158 (not ?v_152)) (?v_196 (not P16)) (?v_207 (not P38)) (?v_171 (not P26)) (?v_204 (not P15)) (?v_205 (not ?v_141)) (?v_194 (not ?v_96)) (?v_208 (not P32)) (?v_7 (<= (+ (* 53 x15) (* 52 x37) (* 49 x15)) 36))) (let ((?v_117 (not ?v_7)) (?v_29 (= (- (* 50 x32) (* 38 x16)) 45)) (?v_36 (<= (+ (* 30 x12) (* 35 x1) (* 51 x6)) 58))) (let ((?v_102 (not ?v_36)) (?v_149 (< (+ (* 55 x27) (* 26 x3)) 11))) (let ((?v_94 (not ?v_149)) (?v_57 (< (- (+ (* 48 x9) x20) (* 36 x4)) 4))) (let ((?v_91 (not ?v_57)) (?v_211 (not ?v_29)) (?v_6 (<= (- (- (* (- 48) x16) (* 34 x12)) (* 8 x39)) (- 32)))) (let ((?v_176 (not ?v_6)) (?v_18 (<= (+ (* (- 54) x15) x21 (* 2 x4)) 14)) (?v_40 (< (- (- 0 ?v_9) (* 3 x1)) (- 31))) (?v_13 (<= (- (+ (* (- 36) x20) (* 28 x26)) (* 13 x13)) 12)) (?v_4 (distinct (- (- (* 28 x29) (* 12 x15)) (* 30 x6)) (- 13))) (?v_16 (distinct (+ (* (- 43) x33) (* 21 x34) (* 38 x28)) 49)) (?v_58 (< (- (+ (* (- 13) x37) (* 5 x25)) (* 28 x2)) (- 42))) (?v_37 (< (- (+ (* (- 32) x11) (* 18 x35)) x28) 37))) (let ((?v_197 (not ?v_37)) (?v_12 (distinct (+ (* (- 56) x37) x25 (* 3 x31)) 14)) (?v_8 (not ?v_4)) (?v_56 (< (- (- (* (- 29) x3) (* 57 x18)) (* 18 x22)) (- 50)))) (let ((?v_21 (not ?v_56)) (?v_17 (<= (- (- (* (- 13) x14) ?v_9) (* 43 x21)) (- 52))) (?v_48 (<= (+ (- (* (- 21) x8) (* 7 x11)) (* 19 x29)) 45)) (?v_79 (not ?v_12)) (?v_101 (not ?v_13)) (?v_44 (<= (- (+ (* (- 9) x24) (* 38 x13)) (* 2 x17)) (- 28))) (?v_95 (not ?v_16)) (?v_80 (< (- (- (* (- 29) x21) (* 35 x4)) (* 5 x1)) 0)) (?v_76 (<= (- (- (* (- 18) x12) (* 41 x12)) (* 11 x22)) (- 26)))) (let ((?v_138 (not ?v_76)) (?v_30 (< (- (- (* 46 x3) (* 4 x6)) (* 21 x38)) (- 32)))) (let ((?v_121 (not ?v_30)) (?v_144 (not ?v_18)) (?v_142 (< (- (+ (* 15 x19) (* 15 x38)) (* 47 x10)) (- 11))) (?v_78 (< (- (+ (* (- 37) x2) (* 44 x20)) (* 16 x18)) (- 51))) (?v_63 (not ?v_44)) (?v_60 (< (+ (* (- 10) x18) (* 20 x39) (* 20 x28)) 16))) (let ((?v_93 (not ?v_60)) (?v_140 (< (- (+ (* 48 x1) (* 54 x11)) (* 44 x13)) (- 13))) (?v_50 (not ?v_48)) (?v_122 (= (+ (* 4 x15) (* 15 x24)) (- 46)))) (let ((?v_178 (not ?v_122)) (?v_133 (< (- (+ (* (- 33) x3) (* 55 x8)) (* 23 x1)) 23))) (let ((?v_173 (not ?v_133)) (?v_70 (<= (+ (- (* (- 19) x30) (* 57 x12)) (* 21 x39)) 14)) (?v_108 (< (- (- 0 (* 27 x8)) (* 6 x25)) (- 20))) (?v_73 (<= (- (- (* 45 x32) (* 36 x2)) (* 22 x37)) (- 26)))) (let ((?v_193 (not ?v_73)) (?v_157 (not ?v_78)) (?v_114 (<= (+ (* 5 x29) (* 33 x33) (* 8 x16)) (- 43))) (?v_107 (< (+ (* (- 19) x2) (* 33 x14) (* 30 x8)) 6)) (?v_97 (<= (+ (- (* (- 45) x14) (* 24 x4)) (* 36 x37)) 28)) (?v_105 (<= (- (- (* (- 51) x32) (* 27 x23)) (* 37 x1)) (- 18)))) (let ((?v_189 (not ?v_97)) (?v_188 (< (+ (- (* (- 23) x5) (* 9 x3)) x33) 24))) (let ((?v_131 (not ?v_188)) (?v_143 (not ?v_105)) (?v_183 (not ?v_107)) (?v_128 (= (+ (- (* (- 30) x0) (* 36 x5)) (* 50 x27)) 48)) (?v_191 (not ?v_114))) (let ((?v_155 (not ?v_128)) (?v_206 (not ?v_40)) (?v_174 (not ?v_140)) (?v_195 (not ?v_142)) (?v_203 (not ?v_17)) (?v_200 (not ?v_80)) (?v_202 (not ?v_58)) (?v_209 (not ?v_70))) (and (and (and (and (and (and (and (and (and (and (and (and (and (and (and (and (and (and (and (and (and (and (and (and (and (and (and (and (and (and (and (and (and (and (and (and (and (and (and (and (and (and (and (and (and (and (and (and (and (and (and (and (and (and (and (and (and (and (and (and (and (and (and (and (and (and (and (and (and (and (and (and (and (and (and (and (and (and (and (and (and (and (and (and (and (and (and (and (and (and (and (and (and (and (and (and (and (and (and (and (and (and (and (and (and (and (and (and (and (and (and (and (and (and (and (and (and (and (and (and (and (and (and (and (and (and (and (and (and (and (and (and (and (and (and (and (and (and (and (and (and (and (and (and (and (and (and (and (and (and (and (and (and (and (and (and (and (and (and (and (and (and (and (and (and (and (and (and (and (and (and (and (and (and (and (and (and (and (and (and (and (and (and (and (and (and (and (and (and (and (and (and (and (and (and (and (and (and (and (and (and (and (and (and (and (and (and (and (and (and (and (and (and (and (and (and (and (and (and (and (and (and (and (and (and (and (and (and (and (and (and (and (and (and (and (and (and (and (and (and (and (and (and (and (and (and (and (and (and (and (and (and (and (and (and (and (and (and (and (and (and (and (and (and (and (and (and (and (and (and (and (and (and (and (and (and (and (and (and (and (and (and (and (and (and (and (and (and (and (and (and (and (and (and (and (and (and (and (and (and (and (and (and (and (and (and (and (and (and (and (and (and (and (and (and (and (and (and (and (and (and (and (and (and (and (and (and (and (and (and (and (and (and (and (and (and (and (and (and (and (and (and (and (and (and (and (and (and (and (and (and (and (and (and (and (and (and (and (and (and (and (and (and (and (and (and (and (and (and (and (and (and (and (and (and (and (and (and (and (and (and (and (and (and (and (and (and (and (and (and (and (and (and (and (and (and (and (and (and (and (and (and (and (and (and (and (and (and (and (and (and (and (and (and (and (and (and (and (and (and (and (and (and (and (and (and (and (and (and (and (and (and (and (and (and (and (and (and (and (and (and (and (and (and (and (and (and (and (and (and (and (and (and (and (and (and (and (and (and (and (and (and (and (and (and (and (and (and (and (and (and (and (and (and (and (and (and (and (and (or (or ?v_11 P8) ?v_176) (or (or ?v_5 ?v_179) ?v_86)) (or (or ?v_135 ?v_18) ?v_40)) (or (or ?v_25 ?v_168) ?v_24)) (or (or ?v_66 ?v_35) ?v_99)) (or (or ?v_1 ?v_13) ?v_32)) (or (or ?v_55 ?v_4) ?v_16)) (or ?v_210 ?v_58)) (or (or P5 ?v_31) ?v_59)) (or (or ?v_197 ?v_67) P38)) (or (or ?v_12 ?v_3) ?v_8)) (or (or ?v_53 ?v_5) ?v_26)) (or (or ?v_21 ?v_167) ?v_123)) (or (or ?v_28 ?v_198) P36)) (or (or P18 P9) P36)) (or (or ?v_6 ?v_10) P9)) (or (or ?v_117 ?v_7) ?v_42)) (or (or ?v_81 ?v_8) P24)) (or (or ?v_17 (not P18)) ?v_38)) (or (or ?v_29 ?v_48) ?v_11)) (or (or ?v_113 ?v_39) ?v_23)) (or (or ?v_103 ?v_4) P22)) (or (or ?v_79 ?v_101) ?v_33)) (or (or ?v_44 P21) ?v_11)) (or (or ?v_95 ?v_80) ?v_17)) (or (or ?v_18 ?v_71) P21)) (or (or ?v_82 P34) P3)) (or (or ?v_148 ?v_125) ?v_20)) (or (or ?v_21 ?v_12) ?v_151)) (or (or ?v_138 P20) P15)) (or (or ?v_34 ?v_74) ?v_52)) (or (or ?v_121 ?v_23) ?v_41)) (or (or ?v_24 ?v_25) ?v_26)) (or (or ?v_177 P9) ?v_10)) (or (or P0 ?v_27) ?v_144)) (or (or ?v_28 ?v_29) ?v_30)) (or (or P36 P30) P23)) (or (or ?v_31 ?v_102) ?v_32)) (or (or P26 ?v_33) ?v_34)) (or (or ?v_94 ?v_142) ?v_49)) (or (or ?v_35 ?v_84) P18)) (or (or ?v_36 ?v_110) ?v_37)) (or ?v_154 ?v_38)) (or (or ?v_39 ?v_25) ?v_78)) (or (or ?v_40 ?v_147) ?v_47)) (or (or ?v_106 P3) P0)) (or (or ?v_41 P29) P36)) (or (or ?v_45 P4) ?v_42)) (or (or ?v_43 ?v_69) ?v_141)) (or (or ?v_63 ?v_93) ?v_61)) (or (or ?v_89 ?v_162) ?v_186)) (or (or ?v_47 ?v_57) ?v_5)) (or (or ?v_140 P14) ?v_29)) (or (or ?v_50 ?v_49) ?v_68)) (or (or ?v_178 ?v_50) ?v_51)) (or (or ?v_52 ?v_34) ?v_51)) (or (or ?v_53 ?v_6) ?v_54)) (or (or P23 ?v_132) P28)) (or (or ?v_22 ?v_173) ?v_55)) (or (or ?v_56 ?v_182) ?v_70)) (or (or ?v_115 ?v_72) ?v_91)) (or (or P21 ?v_58) ?v_59)) (or (or ?v_136 ?v_60) ?v_31)) (or (or ?v_11 ?v_61) ?v_36)) (or (or ?v_62 P38) ?v_108)) (or (or ?v_6 ?v_63) ?v_64)) (or (or ?v_65 ?v_98) ?v_63)) (or (or P5 ?v_66) ?v_67)) (or (or ?v_65 ?v_193) ?v_100)) (or (or ?v_7 P17) ?v_68)) (or (or P3 ?v_69) ?v_161)) (or (or ?v_70 ?v_119) ?v_71)) (or (or ?v_37 ?v_1) ?v_160)) (or (or ?v_112 ?v_56) ?v_72)) (or (or ?v_73 ?v_74) ?v_83)) (or (or ?v_66 ?v_76) ?v_44)) (or (or ?v_41 ?v_77) ?v_157)) (or (or P0 ?v_169) ?v_79)) (or (or ?v_114 ?v_72) ?v_80)) (or (or P13 ?v_81) ?v_164)) (or (or ?v_107 ?v_8) ?v_83)) (or (or ?v_59 ?v_92) P24)) (or (or ?v_45 ?v_17) ?v_12)) (or (or ?v_180 ?v_96) P18)) (or (or ?v_86 ?v_12) ?v_87)) (or (or ?v_137 ?v_89) ?v_68)) (or (or ?v_63 P29) ?v_97)) (or (or ?v_90 ?v_68) ?v_91)) (or (or ?v_24 ?v_4) P25)) (or (or ?v_76 ?v_87) ?v_92)) (or (or ?v_93 ?v_94) ?v_91)) (or (or ?v_95 ?v_50) ?v_105)) (or (or ?v_52 ?v_127) P11)) (or (or P0 ?v_120) ?v_90)) (or (or ?v_96 ?v_126) P31)) (or (or ?v_65 ?v_189) ?v_70)) (or (or ?v_92 ?v_79) P35)) (or (or ?v_98 ?v_37) ?v_187)) (or (or ?v_99 ?v_99) ?v_131)) (or (or P31 ?v_184) ?v_16)) (or (or P5 ?v_100) P12)) (or (or ?v_101 ?v_68) ?v_102)) (or (or ?v_103 ?v_104) ?v_143)) (or (or ?v_34 ?v_72) ?v_24)) (or (or ?v_106 ?v_38) ?v_134)) (or (or P37 ?v_77) P1)) (or (or ?v_183 ?v_108) P28)) (or (or ?v_109 ?v_128) ?v_34)) (or (or ?v_110 ?v_84) P30)) (or (or ?v_39 P39) P38)) (or (or ?v_152 ?v_82) ?v_112)) (or (or ?v_113 P36) ?v_191)) (or (or ?v_172 P10) P9)) (or (or ?v_18 ?v_115) ?v_71)) (or (or ?v_101 ?v_32) ?v_116)) (or (or ?v_35 ?v_117) ?v_146)) (or (or P1 ?v_68) ?v_190)) (or (or ?v_7 ?v_99) P0)) (or (or ?v_118 P19) ?v_36)) (or (or ?v_119 ?v_109) ?v_120)) (or (or ?v_121 ?v_86) ?v_105)) (or (or ?v_101 ?v_109) ?v_122)) (or (or P34 ?v_123) ?v_82)) (or (or ?v_31 ?v_124) ?v_59)) (or (or P28 ?v_125) ?v_35)) (or (or ?v_8 P10) ?v_95)) (or (or ?v_66 ?v_26) ?v_104)) (or (or P11 ?v_126) ?v_127)) (or (or ?v_116 P16) ?v_3)) (or (or ?v_155 ?v_104) ?v_129)) (or (or ?v_150 ?v_130) ?v_129)) (or (or ?v_79 ?v_47) ?v_131)) (or (or P1 ?v_156) P35)) (or (or ?v_102 ?v_96) ?v_120)) (or (or P5 ?v_132) ?v_48)) (or (or ?v_100 ?v_80) ?v_128)) (or (or ?v_71 ?v_108) ?v_74)) (or (or P2 ?v_133) ?v_96)) (or (or ?v_34 ?v_134) ?v_12)) (or (or ?v_33 ?v_39) ?v_36)) (or (or ?v_59 ?v_64) ?v_52)) (or (or ?v_135 P26) ?v_13)) (or (or ?v_6 ?v_136) ?v_119)) (or (or ?v_206 ?v_192) ?v_17)) (or (or ?v_8 ?v_61) ?v_33)) (or (or ?v_118 ?v_138) ?v_77)) (or (or ?v_21 ?v_139) ?v_90)) (or (or ?v_25 P29) ?v_122)) (or (or ?v_174 ?v_92) ?v_91)) (or (or ?v_98 ?v_141) ?v_142)) (or (or ?v_96 ?v_58) ?v_57)) (or (or ?v_143 ?v_144) P13)) (or (or P25 ?v_10) P13)) (or (or ?v_159 ?v_98) ?v_195)) (or (or ?v_36 ?v_137) ?v_67)) (or (or ?v_146 ?v_117) ?v_147)) (or (or ?v_104 ?v_148) ?v_26)) (or (or ?v_47 ?v_124) ?v_5)) (or (or P34 P35) ?v_113)) (or (or ?v_149 P29) ?v_118)) (or (or ?v_185 ?v_21) P33)) (or (or ?v_65 ?v_150) P38)) (or (or ?v_12 P15) P24)) (or (or ?v_47 P37) ?v_138)) (or (or ?v_29 ?v_151) ?v_36)) (or (or ?v_114 ?v_158) ?v_130)) (or (or ?v_50 ?v_35) ?v_153)) (or ?v_154 ?v_4)) (or (or P10 ?v_50) ?v_68)) (or (or ?v_147 ?v_49) ?v_16)) (or (or P25 ?v_79) ?v_91)) (or (or ?v_127 ?v_129) P6)) (or (or P20 P31) ?v_155)) (or (or ?v_132 ?v_80) ?v_83)) (or (or ?v_156 ?v_127) ?v_105)) (or (or ?v_47 ?v_107) ?v_17)) (or (or ?v_203 ?v_123) P13)) (or (or ?v_54 ?v_157) ?v_70)) (or (or ?v_112 ?v_87) ?v_158)) (or (or ?v_132 P31) ?v_5)) (or (or P13 ?v_159) ?v_196)) (or (or P7 ?v_207) ?v_76)) (or (or ?v_70 ?v_8) ?v_146)) (or (or ?v_4 P5) ?v_152)) (or (or ?v_31 ?v_100) P16)) (or (or ?v_142 ?v_126) ?v_18)) (or (or ?v_118 ?v_55) ?v_71)) (or (or ?v_133 ?v_135) P11)) (or (or ?v_160 ?v_63) ?v_25)) (or (or ?v_161 ?v_1) ?v_62)) (or (or ?v_94 ?v_58) ?v_143)) (or (or ?v_161 ?v_70) ?v_97)) (or (or ?v_162 ?v_130) ?v_32)) (or (or ?v_171 ?v_45) ?v_142)) (or (or ?v_163 ?v_159) ?v_108)) (or (or ?v_54 P24) ?v_164)) (or (or P22 ?v_200) ?v_165)) (or (or ?v_153 P8) ?v_101)) (or (or P26 ?v_8) ?v_64)) (or (or ?v_141 ?v_26) P4)) (or (or ?v_166 ?v_135) ?v_82)) (or (or ?v_167 ?v_144) P30)) (or (or ?v_60 ?v_158) ?v_168)) (or (or ?v_45 ?v_102) ?v_169)) (or (or ?v_170 P37) ?v_134)) (or (or ?v_73 P4) P7)) (or (or ?v_70 ?v_45) ?v_23)) (or (or P14 ?v_143) ?v_39)) (or (or ?v_108 ?v_133) ?v_70)) (or (or ?v_51 ?v_131) P12)) (or (or ?v_52 ?v_12) ?v_3)) (or (or ?v_8 ?v_124) P3)) (or (or ?v_63 ?v_132) ?v_204)) (or (or ?v_13 ?v_171) ?v_65)) (or (or ?v_172 ?v_17) ?v_173)) (or (or ?v_137 ?v_99) ?v_174)) (or (or ?v_67 ?v_20) ?v_5)) (or (or ?v_24 ?v_78) ?v_57)) (or (or ?v_96 P28) ?v_63)) (or (or ?v_175 ?v_66) ?v_22)) (or (or ?v_80 P33) P23)) (or (or ?v_162 ?v_176) ?v_1)) (or (or ?v_205 P29) ?v_138)) (or (or ?v_177 ?v_73) ?v_139)) (or (or ?v_144 ?v_166) ?v_115)) (or (or P31 ?v_112) P34)) (or (or ?v_147 ?v_64) ?v_202)) (or (or ?v_128 ?v_177) ?v_32)) (or (or ?v_25 P6) ?v_149)) (or (or ?v_26 ?v_123) ?v_155)) (or (or P29 ?v_168) ?v_123)) (or (or ?v_146 ?v_209) ?v_95)) (or (or ?v_178 ?v_147) ?v_18)) (or (or ?v_170 ?v_104) ?v_102)) (or (or ?v_179 ?v_52) P29)) (or (or ?v_180 ?v_79) ?v_102)) (or (or P39 P10) ?v_59)) (or (or ?v_166 ?v_181) ?v_69)) (or (or ?v_182 P4) ?v_146)) (or (or ?v_12 P10) ?v_172)) (or (or ?v_183 ?v_161) ?v_57)) (or (or ?v_119 ?v_184) ?v_185)) (or (or P13 P33) P24)) (or (or ?v_18 ?v_96) ?v_90)) (or (or ?v_181 ?v_38) ?v_42)) (or (or ?v_45 ?v_146) ?v_12)) (or (or ?v_82 ?v_186) ?v_180)) (or (or ?v_24 ?v_140) ?v_13)) (or (or ?v_194 ?v_156) ?v_180)) (or (or ?v_20 ?v_187) ?v_35)) (or (or ?v_101 ?v_10) ?v_108)) (or (or ?v_39 ?v_31) ?v_188)) (or (or ?v_5 ?v_32) ?v_169)) (or (or ?v_129 ?v_119) P25)) (or (or ?v_87 ?v_97) ?v_84)) (or (or ?v_98 ?v_59) ?v_125)) (or (or ?v_180 ?v_101) ?v_86)) (or (or P15 ?v_125) ?v_45)) (or (or ?v_101 ?v_189) P5)) (or (or ?v_16 ?v_166) ?v_148)) (or (or ?v_173 ?v_70) ?v_91)) (or (or ?v_60 ?v_150) ?v_33)) (or (or ?v_79 ?v_148) ?v_178)) (or (or ?v_76 P20) ?v_8)) (or (or P24 ?v_159) ?v_124)) (or (or P25 P2) ?v_31)) (or (or ?v_190 ?v_138) ?v_4)) (or (or ?v_99 ?v_158) ?v_148)) (or (or ?v_178 ?v_72) ?v_160)) (or (or (not ?v_108) ?v_45) ?v_116)) (or (or ?v_60 ?v_183) ?v_147)) (or (or ?v_134 ?v_36) ?v_179)) (or (or ?v_125 ?v_136) ?v_191)) (or (or ?v_60 ?v_166) ?v_48)) (or (or ?v_188 ?v_67) ?v_70)) (or (or ?v_54 ?v_139) P11)) (or (or ?v_47 ?v_171) ?v_138)) (or (or ?v_52 ?v_56) ?v_192)) (or (or ?v_193 ?v_50) ?v_168)) (or (or ?v_194 P21) ?v_169)) (or (or ?v_10 ?v_73) ?v_134)) (or (or ?v_91 ?v_8) ?v_133)) (or (or ?v_121 ?v_159) ?v_135)) (or (or ?v_130 ?v_195) ?v_196)) (or (or ?v_42 ?v_120) P27)) (or (or ?v_140 ?v_31) ?v_79)) (or (or ?v_103 P36) P10)) (or (or ?v_167 ?v_122) ?v_197)) (or (or ?v_148 ?v_178) ?v_198)) (or (or ?v_72 ?v_101) ?v_167)) (or (or ?v_55 ?v_198) ?v_178)) (or (or ?v_89 ?v_196) ?v_29)) (or (or ?v_108 ?v_199) P7)) (or (or ?v_53 ?v_103) ?v_168)) (or (or ?v_11 ?v_31) ?v_208)) (or (or ?v_25 ?v_113) ?v_200)) (or (or ?v_24 ?v_136) ?v_176)) (or (or ?v_55 ?v_93) ?v_37)) (or (or ?v_3 ?v_183) ?v_153)) (or (or ?v_43 ?v_161) ?v_156)) (or (or ?v_183 ?v_167) ?v_27)) (or (or ?v_163 P32) ?v_58)) (or (or ?v_17 P31) ?v_101)) (or (or ?v_137 ?v_193) P4)) (or (or ?v_130 P21) ?v_56)) (or (or ?v_81 ?v_201) P9)) (or (or P34 ?v_120) ?v_102)) (or (or ?v_126 ?v_66) P14)) (or (or ?v_177 ?v_117) ?v_197)) (or (or ?v_17 ?v_118) ?v_4)) (or (or ?v_16 ?v_91) ?v_51)) (or (or ?v_49 ?v_21) ?v_165)) (or (or ?v_64 ?v_44) ?v_93)) (or (or ?v_199 ?v_73) ?v_66)) (or (or ?v_100 P18) ?v_5)) (or (or ?v_144 ?v_98) P26)) (or (or ?v_179 ?v_74) ?v_202)) (or (or ?v_8 P13) P17)) (or (or ?v_71 ?v_66) ?v_67)) (or (or ?v_17 P34) P19)) (or (or ?v_158 ?v_201) P19)) (or (or ?v_199 ?v_71) ?v_30)) (or (or P32 ?v_12) ?v_24)) (or (or ?v_179 ?v_117) P6)) (or (or ?v_81 ?v_177) ?v_37)) (or (or ?v_180 ?v_50) ?v_172)) (or (or ?v_69 ?v_50) ?v_3)) (or (or ?v_129 ?v_31) ?v_114)) (or (or ?v_211 ?v_138) ?v_69)) (or (or P2 ?v_190) ?v_10)) (or (or ?v_1 ?v_68) ?v_92)) (or (or ?v_91 ?v_104) ?v_50)) (or (or ?v_166 ?v_98) ?v_49)) (or (or ?v_160 ?v_86) ?v_103)) (or (or ?v_16 ?v_61) P28)) (or (or ?v_179 ?v_49) ?v_99)) (or (or ?v_98 ?v_18) ?v_175)) (or (or ?v_77 ?v_7) ?v_184)) (or (or ?v_160 P14) ?v_81)) (or (or ?v_158 ?v_53) ?v_109)) (or (or P25 ?v_172) P27)) (or (or ?v_203 ?v_193) ?v_95)) (or (or ?v_68 ?v_82) P29)) (or (or ?v_120 ?v_92) ?v_22)) (or (or ?v_125 P1) ?v_4)) (or (or ?v_67 ?v_48) ?v_5)) (or (or ?v_171 ?v_17) ?v_65)) (or (or ?v_112 ?v_180) ?v_189)) (or (or ?v_49 ?v_201) ?v_189)) (or (or ?v_118 P6) P21)) (or (or ?v_198 ?v_124) ?v_92)) (or (or ?v_118 ?v_35) ?v_133)) (or (or P12 ?v_34) ?v_40)) (or (or ?v_162 ?v_62) ?v_202)) (or (or ?v_106 ?v_165) ?v_182)) (or (or ?v_97 ?v_169) ?v_83)) (or (or ?v_59 ?v_199) ?v_72)) (or (or P30 ?v_204) ?v_98)) (or (or ?v_199 ?v_38) ?v_18)) (or (or ?v_66 ?v_188) ?v_35)) (or (or ?v_76 P3) ?v_55)) (or (or ?v_1 ?v_61) P38)) (or (or ?v_167 ?v_50) ?v_141)) (or (or ?v_108 ?v_128) ?v_129)) (or (or ?v_117 ?v_26) ?v_157)) (or (or ?v_193 ?v_156) ?v_59)) (or (or ?v_23 ?v_148) ?v_56)) (or (or P32 P20) ?v_41)) (or (or ?v_36 P18) ?v_50)) (or (or ?v_165 ?v_133) ?v_120)) (or (or ?v_69 P38) ?v_183)) (or (or ?v_157 ?v_30) ?v_166)) (or (or ?v_86 ?v_70) ?v_131)) (or (or ?v_188 P25) ?v_114)) (or (or ?v_7 ?v_52) ?v_48)) (or (or ?v_153 ?v_107) ?v_76)) (or (or ?v_61 ?v_184) P12)) (or (or P22 ?v_93) ?v_68)) (or (or ?v_184 P5) ?v_189)) (or (or ?v_72 ?v_77) ?v_34)) (or (or ?v_199 ?v_124) ?v_69)) (or (or ?v_48 ?v_116) ?v_49)) (or (or ?v_164 ?v_92) ?v_199)) (or (or ?v_179 ?v_99) ?v_57)) (or (or ?v_21 ?v_155) ?v_61)) (or (or ?v_62 ?v_94) P0)) (or (or ?v_7 ?v_28) ?v_151)) (or (or ?v_103 P19) P36)) (or (or ?v_74 ?v_203) ?v_178)) (or (or P24 ?v_173) P33)) (or (or ?v_67 ?v_44) ?v_205)) (or (or ?v_27 ?v_147) ?v_7)) (or (or P0 ?v_119) ?v_206)) (or (or ?v_181 ?v_52) ?v_91)) (or (or P5 P24) ?v_105)) (or (or ?v_16 ?v_97) ?v_180)) (or (or ?v_66 ?v_153) P28)) (or (or ?v_39 ?v_50) ?v_160)) (or (or P32 ?v_45) ?v_104)) (or (or ?v_70 ?v_183) ?v_86)) (or (or ?v_86 ?v_127) ?v_130)) (or (or ?v_157 ?v_200) ?v_150)) (or (or P15 ?v_198) ?v_103)) (or (or ?v_144 ?v_91) ?v_26)) (or (or ?v_41 ?v_191) ?v_166)) (or (or ?v_124 ?v_138) ?v_198)) (or (or P10 ?v_199) ?v_206)) (or (or ?v_122 ?v_82) P39)) (or (or ?v_63 ?v_138) ?v_17)) (or (or ?v_39 P36) ?v_182)) (or (or ?v_97 ?v_37) ?v_18)) (or (or ?v_153 ?v_115) ?v_168)) (or (or ?v_33 ?v_197) ?v_62)) (or (or ?v_150 ?v_128) ?v_95)) (or (or ?v_63 ?v_25) ?v_108)) (or (or P9 ?v_66) ?v_113)) (or (or ?v_98 ?v_160) ?v_7)) (or (or ?v_20 ?v_55) ?v_130)) (or (or ?v_90 ?v_64) ?v_128)) (or (or ?v_182 ?v_157) ?v_140)) (or (or ?v_199 ?v_189) ?v_177)) (or (or ?v_8 P35) ?v_171)) (or (or P4 ?v_50) ?v_207)) (or (or ?v_86 ?v_191) ?v_42)) (or (or ?v_110 P10) ?v_164)) (or (or ?v_22 P17) ?v_131)) (or (or ?v_128 ?v_200) P20)) (or (or ?v_31 ?v_59) ?v_93)) (or (or P37 ?v_60) ?v_179)) (or (or ?v_51 ?v_122) ?v_144)) (or (or ?v_82 ?v_22) ?v_65)) (or (or ?v_165 ?v_114) ?v_32)) (or (or ?v_43 ?v_43) ?v_93)) (or (or P12 ?v_143) ?v_132)) (or (or ?v_143 ?v_110) P4)) (or (or ?v_3 ?v_185) ?v_68)) (or (or ?v_61 ?v_202) P18)) (or (or ?v_179 ?v_129) ?v_62)) (or (or ?v_66 ?v_130) ?v_87)) (or (or ?v_65 ?v_102) P12)) (or (or ?v_117 P4) ?v_80)) (or (or ?v_147 ?v_156) ?v_28)) (or (or ?v_122 ?v_100) ?v_139)) (or (or ?v_110 ?v_94) ?v_24)) (or (or ?v_33 ?v_204) ?v_78)) (or (or ?v_189 ?v_166) ?v_34)) (or (or ?v_120 ?v_202) P22)) (or (or ?v_51 P20) P25)) (or (or ?v_200 ?v_187) ?v_55)) (or (or P30 ?v_68) ?v_77)) (or (or ?v_192 P29) ?v_11)) (or (or ?v_208 ?v_16) P8)) (or (or ?v_162 ?v_50) P7)) (or (or P38 ?v_56) ?v_98)) (or (or ?v_83 P29) ?v_201)) (or (or ?v_209 ?v_17) ?v_206)) (or (or ?v_209 ?v_50) ?v_141)) (or (or ?v_98 ?v_185) ?v_186)) (or (or ?v_139 ?v_141) ?v_117)) (or (or P26 ?v_191) ?v_40)) (or (or P6 P29) ?v_202)) (or (or ?v_157 ?v_7) ?v_165)) (or ?v_210 ?v_47)) (or (or ?v_202 ?v_109) ?v_155)) (or (or ?v_4 ?v_118) ?v_158)) (or (or ?v_205 ?v_22) ?v_24)) (or (or P11 P30) ?v_20)) (or (or ?v_207 ?v_184) ?v_47)) (or (or ?v_128 ?v_208) ?v_114)) (or (or ?v_117 ?v_80) ?v_95)) (or (or P31 ?v_5) ?v_153)) (or (or P25 ?v_128) ?v_48)) (or (or ?v_57 ?v_123) P36)) (or (or ?v_193 ?v_23) ?v_97)) (or (or ?v_83 ?v_208) ?v_172)) (or (or ?v_77 ?v_140) ?v_80)) (or (or ?v_162 P21) ?v_132)) (or (or ?v_30 ?v_25) ?v_22)) (or (or ?v_28 P33) ?v_172)) (or (or ?v_105 ?v_63) ?v_211))))))))))))))))))))))))))))))))
(check-sat)
(exit)
